mapa = [|
         9,9,9,9,9,9,9|
         9,9,0,0,0,0,9|
         9,4,0,1,1,0,9|
         9,0,8,8,8,9,9|
         9,4,0,1,1,0,9|
         9,9,0,0,0,0,9|
         9,9,9,9,9,9,9|];
dimx = 7;
dimy = 7;
filav = 4;
colav = 2;
from = [1,2,3,4,5,6,8,9,10,11,12,13,15,16,17,18,19,20,22,23,24,25,26,27,29,30,31,32,33,34,36,37,38,39,40,41,1,2,3,4,5,6,8,9,10,11,12,13,15,16,17,18,19,20,22,23,24,25,26,27,29,30,31,32,33,34,36,37,38,39,40,41,7,14,21,28,35,42,43,44,45,46,47,48];
to = [2,3,4,5,6,7,9,10,11,12,13,14,16,17,18,19,20,21,23,24,25,26,27,28,30,31,32,33,34,35,37,38,39,40,41,42,8,9,10,11,12,13,15,16,17,18,19,20,22,23,24,25,26,27,29,30,31,32,33,34,36,37,38,39,40,41,43,44,45,46,47,48,14,21,28,35,42,49,44,45,46,47,48,49];
